<?xml version = "1.0" encoding="UTF-8" standalone="yes"?>
<CPLEXSolution version="1.2">
 <header
   problemName="random_20"
   solutionName="incumbent"
   solutionIndex="-1"
   objectiveValue="147.09515851201942"
   solutionTypeValue="3"
   solutionTypeString="primal"
   solutionStatusValue="101"
   solutionStatusString="integer optimal solution"
   solutionMethodString="mip"
   primalFeasible="1"
   dualFeasible="1"
   MIPNodes="0"
   MIPIterations="971"
   writeLevel="3"/>
 <quality
   epInt="1.0000000000000001e-05"
   epRHS="9.9999999999999995e-07"
   maxIntInfeas="0"
   maxPrimalInfeas="3.5527136788005009e-15"
   maxX="19"
   maxSlack="18"/>
 <variables>
  <variable name="y_0_1" index="0" value="1"/>
  <variable name="y_1_2" index="20" value="1"/>
  <variable name="y_2_3" index="40" value="1"/>
  <variable name="y_3_17" index="73" value="1"/>
  <variable name="y_4_18" index="93" value="1"/>
  <variable name="y_5_15" index="109" value="1"/>
  <variable name="y_6_16" index="129" value="1"/>
  <variable name="y_7_12" index="144" value="1"/>
  <variable name="y_8_11" index="162" value="1"/>
  <variable name="y_9_8" index="179" value="1"/>
  <variable name="y_10_6" index="196" value="1"/>
  <variable name="y_11_10" index="219" value="1"/>
  <variable name="y_12_5" index="233" value="1"/>
  <variable name="y_13_19" index="265" value="1"/>
  <variable name="y_14_13" index="279" value="1"/>
  <variable name="y_15_14" index="299" value="1"/>
  <variable name="y_16_7" index="311" value="1"/>
  <variable name="y_17_4" index="327" value="1"/>
  <variable name="y_18_9" index="351" value="1"/>
  <variable name="y_19_0" index="361" value="1"/>
  <variable name="x_0_1" index="380" value="19"/>
  <variable name="x_1_2" index="399" value="18"/>
  <variable name="x_2_3" index="418" value="17"/>
  <variable name="x_3_17" index="450" value="16"/>
  <variable name="x_4_18" index="469" value="14"/>
  <variable name="x_5_15" index="484" value="4"/>
  <variable name="x_6_16" index="503" value="7.9999999999999964"/>
  <variable name="x_7_12" index="517" value="6"/>
  <variable name="x_8_11" index="534" value="11"/>
  <variable name="x_9_8" index="550" value="12"/>
  <variable name="x_10_6" index="566" value="9"/>
  <variable name="x_11_10" index="588" value="10"/>
  <variable name="x_12_5" index="601" value="5"/>
  <variable name="x_13_19" index="632" value="1"/>
  <variable name="x_14_13" index="645" value="2"/>
  <variable name="x_15_14" index="664" value="3"/>
  <variable name="x_16_7" index="675" value="7"/>
  <variable name="x_17_4" index="690" value="15"/>
  <variable name="x_18_9" index="713" value="13"/>
 </variables>
 <objectiveValues>
  <objective index="0" name="" value="147.0951585120194"/>
 </objectiveValues>
</CPLEXSolution>
